 Code  1431
 Dimension, Fixed Cost
   100        3000
 Facility, Client, Transportation Cost
     1        5           3
     1       28           3
     1       41           4
     1       42           1
     1       43           0
     1       63           1
     1       65           0
     1       77           0
     1       91           2
     1       99           2
     2        2           2
     2       15           1
     2       20           4
     2       25           4
     2       56           3
     2       64           0
     2       70           1
     2       75           1
     2       76           0
     2       95           1
     3        2           0
     3        6           4
     3       15           2
     3       18           4
     3       21           4
     3       26           1
     3       47           3
     3       58           0
     3       76           0
     3      100           0
     4       16           1
     4       46           0
     4       47           0
     4       49           0
     4       56           3
     4       73           4
     4       74           3
     4       79           0
     4       91           3
     4       98           4
     5       15           4
     5       17           1
     5       18           2
     5       36           1
     5       39           0
     5       57           4
     5       62           3
     5       80           1
     5       88           3
     5       99           3
     6       19           3
     6       20           2
     6       25           2
     6       28           1
     6       32           3
     6       56           0
     6       66           2
     6       87           1
     6       96           4
     6       98           4
     7       10           0
     7       22           0
     7       34           4
     7       61           2
     7       67           2
     7       75           0
     7       76           1
     7       90           2
     7       91           4
     7       96           2
     8       14           3
     8       19           2
     8       21           1
     8       33           1
     8       35           2
     8       44           1
     8       64           2
     8       73           2
     8       79           0
     8       83           2
     9        1           0
     9        5           4
     9       18           0
     9       22           0
     9       28           2
     9       29           4
     9       33           4
     9       70           1
     9       96           1
     9       97           1
    10        1           4
    10       21           0
    10       34           4
    10       37           0
    10       43           1
    10       44           0
    10       66           2
    10       73           3
    10       83           3
    10       93           2
    11        3           4
    11       37           3
    11       47           4
    11       48           2
    11       62           4
    11       64           0
    11       69           3
    11       82           3
    11       83           4
    11       87           3
    12        6           4
    12       14           3
    12       32           4
    12       49           0
    12       54           3
    12       62           2
    12       65           2
    12       69           2
    12       86           0
    12       88           2
    13       16           0
    13       31           4
    13       41           3
    13       51           2
    13       57           2
    13       59           0
    13       67           0
    13       69           0
    13       75           3
    13       96           3
    14       22           2
    14       32           4
    14       45           2
    14       46           2
    14       57           0
    14       73           1
    14       78           0
    14       94           2
    14       96           4
    14       98           3
    15       10           2
    15       14           4
    15       47           4
    15       51           1
    15       60           3
    15       61           1
    15       83           3
    15       91           0
    15       92           0
    15       97           3
    16        8           3
    16       11           0
    16       20           4
    16       21           3
    16       27           4
    16       34           0
    16       38           2
    16       55           2
    16       79           3
    16       98           4
    17       22           2
    17       43           4
    17       48           3
    17       53           2
    17       54           4
    17       58           2
    17       64           0
    17       66           4
    17       82           3
    17       99           3
    18       16           3
    18       18           4
    18       30           1
    18       47           1
    18       57           2
    18       61           4
    18       72           4
    18       77           1
    18       81           3
    18      100           0
    19       16           1
    19       18           4
    19       22           2
    19       33           0
    19       36           3
    19       41           3
    19       45           1
    19       54           1
    19       61           0
    19       82           0
    20        5           0
    20       12           0
    20       20           0
    20       29           2
    20       32           3
    20       44           4
    20       52           2
    20       59           4
    20       62           1
    20       63           2
    21       17           0
    21       18           3
    21       21           3
    21       38           1
    21       40           0
    21       57           1
    21       72           2
    21       91           0
    21       98           3
    21      100           1
    22        3           2
    22       17           1
    22       32           0
    22       34           1
    22       39           3
    22       43           1
    22       47           1
    22       80           0
    22       90           2
    22       94           2
    23        3           3
    23        5           3
    23       11           0
    23       14           2
    23       15           3
    23       29           0
    23       31           1
    23       45           2
    23       56           1
    23       65           1
    24        3           4
    24       26           3
    24       30           3
    24       32           2
    24       36           3
    24       39           1
    24       56           3
    24       67           3
    24       71           0
    24       93           1
    25        2           0
    25        7           4
    25       21           1
    25       31           1
    25       43           1
    25       68           2
    25       70           1
    25       73           2
    25       77           3
    25       90           3
    26        4           3
    26       30           1
    26       45           3
    26       51           0
    26       59           1
    26       64           1
    26       68           2
    26       70           1
    26       91           4
    26       96           1
    27       13           3
    27       25           0
    27       26           1
    27       33           1
    27       40           0
    27       44           1
    27       51           3
    27       88           1
    27       97           1
    27       98           4
    28        5           1
    28        6           2
    28       27           2
    28       41           4
    28       42           2
    28       46           1
    28       50           0
    28       60           2
    28       70           0
    28       90           4
    29       17           0
    29       39           1
    29       44           3
    29       49           4
    29       58           2
    29       61           2
    29       63           2
    29       82           1
    29       90           2
    29       95           0
    30       18           1
    30       19           0
    30       37           1
    30       40           3
    30       46           1
    30       61           2
    30       73           0
    30       82           3
    30       86           4
    30       99           4
    31        1           4
    31       13           1
    31       19           4
    31       28           2
    31       31           3
    31       32           2
    31       62           0
    31       75           0
    31       77           4
    31       95           4
    32       11           4
    32       24           4
    32       36           0
    32       38           3
    32       44           0
    32       50           0
    32       60           3
    32       64           1
    32       84           4
    32       86           2
    33       13           0
    33       16           2
    33       27           4
    33       38           4
    33       53           2
    33       64           0
    33       76           1
    33       77           3
    33       81           4
    33       95           3
    34        8           2
    34       26           0
    34       31           2
    34       40           2
    34       47           2
    34       49           0
    34       53           0
    34       57           4
    34       70           1
    34       77           0
    35        2           3
    35        3           2
    35        7           2
    35       16           4
    35       43           1
    35       46           0
    35       51           4
    35       52           2
    35       90           1
    35       94           2
    36        4           2
    36       17           1
    36       21           0
    36       36           4
    36       49           1
    36       73           3
    36       83           0
    36       85           3
    36       95           0
    36       96           4
    37        5           1
    37       11           2
    37       13           1
    37       22           1
    37       27           2
    37       28           4
    37       59           4
    37       60           1
    37       63           1
    37       66           3
    38        9           0
    38       18           0
    38       30           3
    38       31           3
    38       39           0
    38       56           2
    38       60           3
    38       63           0
    38       69           3
    38       73           1
    39       15           4
    39       30           4
    39       32           4
    39       40           2
    39       51           3
    39       53           1
    39       68           3
    39       86           4
    39       92           2
    39       94           0
    40        6           1
    40       17           0
    40       20           0
    40       28           0
    40       30           3
    40       31           0
    40       45           4
    40       48           0
    40       77           3
    40       87           0
    41        4           0
    41       17           4
    41       20           2
    41       38           0
    41       39           3
    41       60           4
    41       64           1
    41       66           2
    41       72           1
    41       73           1
    42        9           1
    42       16           0
    42       32           2
    42       40           3
    42       46           1
    42       57           1
    42       64           2
    42       80           4
    42       88           4
    42       99           3
    43       19           2
    43       23           2
    43       26           1
    43       28           4
    43       31           2
    43       33           3
    43       34           0
    43       37           2
    43       51           1
    43       95           1
    44        8           2
    44       19           0
    44       35           4
    44       52           4
    44       55           3
    44       59           3
    44       61           3
    44       77           4
    44       85           4
    44       91           1
    45        3           3
    45        7           3
    45       12           2
    45       22           4
    45       35           0
    45       42           3
    45       53           4
    45       56           2
    45       81           1
    45       93           2
    46       12           1
    46       29           4
    46       42           0
    46       47           3
    46       55           4
    46       59           1
    46       64           2
    46       66           3
    46       77           4
    46       97           0
    47       21           1
    47       25           3
    47       45           0
    47       46           3
    47       68           3
    47       71           0
    47       75           0
    47       76           0
    47       93           4
    47       96           2
    48       12           0
    48       15           0
    48       50           0
    48       51           2
    48       56           0
    48       58           2
    48       78           4
    48       97           2
    48       99           4
    48      100           3
    49       22           4
    49       24           2
    49       31           4
    49       45           2
    49       47           2
    49       51           2
    49       55           3
    49       64           2
    49       68           0
    49       98           2
    50       15           2
    50       49           1
    50       57           2
    50       59           2
    50       61           0
    50       86           4
    50       87           4
    50       88           3
    50       91           4
    50       96           4
    51       31           2
    51       40           1
    51       45           4
    51       47           0
    51       58           4
    51       61           4
    51       65           3
    51       80           1
    51       89           2
    51       99           0
    52       27           3
    52       32           1
    52       39           4
    52       58           2
    52       60           4
    52       61           4
    52       72           3
    52       77           4
    52       87           1
    52       96           1
    53        6           2
    53       15           2
    53       16           1
    53       32           2
    53       33           1
    53       59           4
    53       62           3
    53       80           4
    53       81           2
    53       97           2
    54        6           3
    54       22           0
    54       33           1
    54       41           1
    54       42           0
    54       55           3
    54       56           4
    54       63           0
    54       71           3
    54       79           1
    55       18           3
    55       20           1
    55       36           2
    55       38           4
    55       46           4
    55       66           4
    55       77           3
    55       82           2
    55       96           4
    55      100           1
    56       21           3
    56       22           3
    56       30           0
    56       34           0
    56       67           4
    56       73           3
    56       79           3
    56       83           0
    56       84           3
    56       89           0
    57        1           1
    57       32           4
    57       34           0
    57       36           0
    57       37           4
    57       57           2
    57       58           4
    57       69           2
    57       78           3
    57       81           4
    58       14           4
    58       16           0
    58       29           2
    58       43           0
    58       68           3
    58       73           2
    58       77           0
    58       82           2
    58       94           4
    58      100           1
    59        5           4
    59       17           1
    59       21           0
    59       25           0
    59       62           0
    59       64           3
    59       65           0
    59       72           1
    59       76           0
    59       94           0
    60       27           4
    60       34           0
    60       45           4
    60       47           0
    60       54           0
    60       60           0
    60       64           2
    60       79           3
    60       84           2
    60       93           1
    61       15           2
    61       24           2
    61       26           1
    61       32           2
    61       34           1
    61       36           1
    61       45           2
    61       63           2
    61       68           1
    61       98           1
    62       10           4
    62       19           4
    62       27           3
    62       32           3
    62       47           3
    62       61           3
    62       64           2
    62       78           1
    62       97           0
    62       99           4
    63        4           4
    63       12           4
    63       14           0
    63       22           0
    63       63           4
    63       79           4
    63       81           2
    63       82           3
    63       86           4
    63       96           2
    64       15           4
    64       23           3
    64       28           3
    64       31           0
    64       43           2
    64       51           4
    64       63           4
    64       69           2
    64       92           1
    64       94           4
    65        3           0
    65       25           1
    65       32           0
    65       55           3
    65       57           0
    65       85           0
    65       90           1
    65       93           3
    65       97           1
    65       98           0
    66        3           1
    66       33           2
    66       37           1
    66       41           2
    66       57           4
    66       60           4
    66       67           1
    66       75           2
    66       97           0
    66      100           3
    67        8           1
    67       33           1
    67       40           3
    67       52           0
    67       56           0
    67       75           1
    67       79           4
    67       87           3
    67       96           1
    67       99           2
    68        1           1
    68       21           0
    68       30           2
    68       32           1
    68       33           3
    68       37           0
    68       41           2
    68       67           3
    68       76           1
    68       96           4
    69        5           3
    69        7           3
    69       23           1
    69       24           4
    69       30           0
    69       54           1
    69       62           2
    69       68           0
    69       87           3
    69       89           3
    70       21           1
    70       22           1
    70       29           1
    70       35           0
    70       46           1
    70       50           3
    70       57           3
    70       60           2
    70       79           1
    70       95           1
    71        5           4
    71        7           0
    71       15           0
    71       18           4
    71       33           2
    71       35           1
    71       50           0
    71       65           3
    71       79           0
    71       87           0
    72        2           0
    72       14           4
    72       17           2
    72       18           3
    72       35           4
    72       45           2
    72       48           3
    72       78           0
    72       83           2
    72       95           0
    73        9           0
    73       10           1
    73       17           3
    73       27           2
    73       38           0
    73       61           1
    73       67           2
    73       68           1
    73       81           4
    73       82           4
    74        8           0
    74       38           2
    74       40           0
    74       41           1
    74       43           4
    74       47           0
    74       48           2
    74       68           3
    74       77           2
    74       91           1
    75        5           4
    75       22           2
    75       23           3
    75       60           3
    75       74           3
    75       81           3
    75       84           0
    75       89           3
    75       90           3
    75       97           0
    76        7           4
    76       12           1
    76       30           3
    76       41           2
    76       46           1
    76       67           4
    76       76           1
    76       79           4
    76       81           2
    76       82           2
    77       14           0
    77       20           3
    77       23           0
    77       39           4
    77       43           4
    77       47           0
    77       53           1
    77       66           2
    77       72           4
    77       95           0
    78       24           3
    78       26           2
    78       34           2
    78       39           3
    78       50           2
    78       56           1
    78       64           4
    78       67           2
    78       70           4
    78       96           4
    79       13           2
    79       41           3
    79       53           2
    79       55           3
    79       56           0
    79       58           4
    79       66           3
    79       75           2
    79       79           2
    79       84           3
    80        1           3
    80        9           0
    80       22           3
    80       28           0
    80       41           3
    80       50           4
    80       56           2
    80       63           1
    80       71           2
    80       82           2
    81       30           0
    81       33           4
    81       37           1
    81       65           1
    81       74           0
    81       77           1
    81       89           0
    81       91           4
    81       95           1
    81       99           2
    82       21           0
    82       24           4
    82       26           1
    82       36           3
    82       63           1
    82       67           4
    82       85           1
    82       88           4
    82       89           3
    82       96           3
    83        1           1
    83        8           4
    83       16           2
    83       54           3
    83       63           1
    83       65           0
    83       85           0
    83       87           2
    83       88           0
    83       94           0
    84       13           3
    84       20           0
    84       22           1
    84       35           1
    84       74           4
    84       75           3
    84       83           0
    84       92           3
    84       97           2
    84       99           1
    85       15           4
    85       18           0
    85       27           4
    85       28           4
    85       52           2
    85       56           1
    85       60           0
    85       61           1
    85       64           1
    85       75           3
    86       14           0
    86       21           1
    86       26           4
    86       31           2
    86       56           3
    86       61           4
    86       77           4
    86       80           1
    86       82           1
    86       92           4
    87        3           0
    87       18           3
    87       32           2
    87       38           3
    87       40           1
    87       43           0
    87       50           1
    87       62           4
    87       76           1
    87       80           3
    88       10           2
    88       19           1
    88       21           2
    88       22           1
    88       32           0
    88       33           0
    88       47           2
    88       56           1
    88       58           0
    88       66           2
    89       14           4
    89       25           1
    89       33           2
    89       42           3
    89       55           3
    89       63           4
    89       69           2
    89       75           4
    89       78           1
    89      100           2
    90        4           1
    90       11           4
    90       20           0
    90       24           3
    90       41           0
    90       60           4
    90       78           3
    90       83           4
    90       85           0
    90       92           1
    91        3           1
    91        7           3
    91       13           2
    91       19           3
    91       33           1
    91       47           2
    91       58           0
    91       75           4
    91       76           1
    91       87           1
    92        1           2
    92        3           1
    92        8           0
    92       13           0
    92       17           0
    92       18           4
    92       27           1
    92       42           4
    92       44           0
    92       83           0
    93       18           4
    93       26           3
    93       59           0
    93       65           0
    93       71           1
    93       78           4
    93       90           3
    93       93           3
    93       94           3
    93       95           3
    94       16           0
    94       21           4
    94       25           3
    94       28           4
    94       42           1
    94       51           2
    94       56           0
    94       58           4
    94       88           2
    94       98           4
    95       17           0
    95       19           1
    95       32           4
    95       41           3
    95       43           0
    95       56           3
    95       64           4
    95       71           4
    95       73           0
    95       94           4
    96        7           0
    96       10           2
    96       13           0
    96       26           3
    96       45           2
    96       58           4
    96       68           2
    96       79           0
    96       90           1
    96       95           3
    97        5           0
    97        8           3
    97       10           4
    97       25           1
    97       42           1
    97       61           3
    97       74           0
    97       84           1
    97       89           0
    97       99           1
    98       19           3
    98       25           3
    98       29           2
    98       41           4
    98       48           0
    98       50           2
    98       53           3
    98       61           2
    98       74           4
    98       89           0
    99        3           3
    99        9           1
    99       13           0
    99       45           3
    99       70           2
    99       72           2
    99       80           4
    99       90           4
    99       91           0
    99       97           2
   100       23           2
   100       37           4
   100       41           4
   100       54           3
   100       59           3
   100       66           0
   100       77           1
   100       91           0
   100       96           1
   100      100           4
